81188
80101
81036
80227
80413
80937
80061
80280
80893
80899
81253
80835
80425
81178
80277
80689
80560
80322
80274
80532
80678
81196
81175
80928
80877
80855
80732
80822
80987
80992
80800
80943
80861
80775
80758
80852
81026
80765
80960
80903
10903
10460
10099
10153
10458
9523
11530
11425
11624
80842
12675
9726
9411
11274
10459
9759
10966
10461
10940
12425
12424
8651
8770
12592
12591
80989
80761
80418
80782
10463
8808
9517
11453
10902
12595
11333
9561
9568
9512
10643
10104
9737
10531
10794
13229
10462
9481
10084
11433
9566
80951
80690
80302
81057
81244
80420
81187
80682
80366
80686
